231651.81,20.02,21.93
238170.79,19.47,21.33
231029.13,20.07,21.99
222224.32,20.87,22.86
239746.37,19.34,21.19
233365.33,19.87,21.77
225659.65,20.55,22.51
219527.28,21.12,23.14
222557.37,20.84,22.82
231444.18,20.04,21.95
245052.81,18.92,20.73
215126.11,21.56,23.61
230865.22,20.09,22.0
227868.07,20.35,22.29
232592.93,19.94,21.84
245038.81,18.93,20.73
228237.23,20.32,22.26
223912.77,20.71,22.69
231749.29,20.01,21.92
232205.84,19.97,21.88
